objective value:                                  -75
t_x1                                                1 	(obj:-100)
t_y1_137                                            1 	(obj:1)
t_y1_422                                            1 	(obj:1)
t_y1_379                                            1 	(obj:1)
t_y1_421                                            1 	(obj:1)
t_y1_140                                            1 	(obj:1)
t_y1_61                                             1 	(obj:1)
t_y1_298                                            1 	(obj:1)
t_y1_244                                            1 	(obj:1)
t_y1_64                                             1 	(obj:1)
t_y1_480                                            1 	(obj:1)
t_y1_42                                             1 	(obj:1)
t_y1_18                                             1 	(obj:1)
t_y1_374                                            1 	(obj:1)
t_y1_124                                            1 	(obj:1)
t_y1_403                                            1 	(obj:1)
t_y1_268                                            1 	(obj:1)
t_y1_372                                            1 	(obj:1)
t_y1_114                                            1 	(obj:1)
t_y1_474                                            1 	(obj:1)
t_y1_21                                             1 	(obj:1)
t_y1_33                                             1 	(obj:1)
t_y1_171                                            1 	(obj:1)
t_y1_147                                            1 	(obj:1)
t_y1_104                                            1 	(obj:1)
t_y1_359                                            1 	(obj:1)
